Minimize
  0.1111111111111111 y_0 + 0.125 y_1 + 0.0769230769230769 y_2
   + 0.0909090909090909 y_3 + 0.0909090909090909 y_4 + 0.1 y_5
   + 0.1111111111111111 y_6 + 0.1428571428571428 y_7 + 0.2 y_8
   + 0.0909090909090909 y_9 + 0.0769230769230769 y_10
   + 0.0909090909090909 y_11 + 0.1428571428571428 y_12 + 0.2 y_13
   + 0.0714285714285714 y_14 + 0.2 y_15 + 0.0769230769230769 y_16
   + 0.1 y_17 + 0.1111111111111111 y_18 + 0.1111111111111111 y_19
   + 0.3333333333333333 y_20 + 0.1111111111111111 y_21
   + 0.0769230769230769 y_22 + 0.0909090909090909 y_23 + 0.2 y_24
   + 0.0909090909090909 y_25 + 0.1428571428571428 y_26
   + 0.1428571428571428 y_27 + 0.125 y_28 + 0.0833333333333333 y_29
   + 0.1 y_30 + 0.1 y_31 + 0.1666666666666667 y_32
   + 0.0833333333333333 y_33 + 0.125 y_34 + 0.1666666666666667 y_35
   + 0.3333333333333333 y_36 + 0.0714285714285714 y_37
   + 0.1666666666666667 y_38 + 0.1111111111111111 y_39 + 0.25 y_40
   + 0.0909090909090909 y_41 + 0.0666666666666667 y_42 + 0.1 y_43
   + 0.5 y_44 + 0.1666666666666667 y_45 + 0.0909090909090909 y_46
   + 0.125 y_47 + 0.0833333333333333 y_48 + 0.1 y_49 + 0.2 y_50
   + 0.125 y_51 + 0.0769230769230769 y_52 + 0.0769230769230769 y_53
   + 0.1 y_54 + 0.1111111111111111 y_55 + 0.1428571428571428 y_56
   + 0.1111111111111111 y_57 + 0.0833333333333333 y_58 + 0.2 y_59
   + 0.0833333333333333 y_60 + 0.2 y_61 + 0.2 y_62
   + 0.1111111111111111 y_63 + 0.0833333333333333 y_64
   + 0.1111111111111111 y_65 + 0.0909090909090909 y_66
   + 0.0833333333333333 y_67 + 0.1428571428571428 y_68
   + 0.0769230769230769 y_69 + 0.1 y_70 + 0.3333333333333333 y_71
   + 0.1111111111111111 y_72 + y_73 + 0.1111111111111111 y_74 + 0.2 y_75
   + 0.1111111111111111 y_76 + 0.0833333333333333 y_77 + 0.25 y_78
   + 0.25 y_79 + 0.1 y_80 + 0.1 y_81 + 0.1666666666666667 y_82 + 0.1 y_83
   + 0.5 y_84 + 0.1 y_85 + 0.1111111111111111 y_86
   + 0.0909090909090909 y_87 + 0.1 y_88 + 0.1111111111111111 y_89
   + 0.0909090909090909 y_90 + 0.1666666666666667 y_91 + 0.25 y_92
   + 0.1 y_93 + 0.0909090909090909 y_94 + 0.1 y_95
   + 0.0909090909090909 y_96 + 0.0833333333333333 y_97
   + 0.0769230769230769 y_98 + 0.0833333333333333 y_99
   - 14.28886946386946 Constant
Subject To
 c_0: y_86 = 1
 c_1_0: y_0 + y_1 + y_6 + y_12 + y_24 + y_26 + y_28 + y_31 + y_34 + y_43
   + y_54 + y_62 + y_67 + y_89 + y_95 >= 1
 c_1_1: y_0 + y_1 + y_6 + y_12 + y_24 + y_26 + y_28 + y_31 + y_34 + y_43
   + y_54 + y_62 + y_88 + y_89 + y_95 >= 1
 c_1_2: y_2 + y_6 + y_14 + y_31 + y_43 + y_52 + y_67 + y_95 + y_98 >= 1
 c_1_3: y_3 + y_4 + y_46 + y_48 + y_77 + y_93 >= 1
 c_1_4: y_3 + y_4 + y_46 + y_48 + y_55 + y_69 + y_77 + y_93 >= 1
 c_1_5: y_5 + y_9 + y_18 + y_21 + y_30 + y_33 + y_39 + y_47 + y_54 + y_80
   + y_85 + y_88 >= 1
 c_1_6: y_0 + y_1 + y_2 + y_6 + y_12 + y_26 + y_28 + y_31 + y_34 + y_43
   + y_54 + y_67 + y_89 + y_95 >= 1
 c_1_7: y_7 + y_8 + y_17 + y_20 + y_27 + y_32 + y_45 + y_50 + y_59 + y_65
   + y_79 + y_81 + y_96 >= 1
 c_1_8: y_7 + y_8 + y_20 + y_27 + y_32 + y_36 + y_38 + y_44 + y_45 + y_50
   + y_59 + y_62 + y_71 + y_73 + y_79 >= 1
 c_1_9: y_5 + y_9 + y_21 + y_26 + y_31 + y_54 + y_80 + y_88 >= 1
 c_1_10: y_10 + y_23 + y_25 + y_29 + y_37 >= 1
 c_1_11: y_11 + y_25 + y_29 + y_63 + y_70 + y_74 + y_87 + y_97 >= 1
 c_1_12: y_0 + y_1 + y_6 + y_12 + y_24 + y_26 + y_28 + y_31 + y_32 + y_34
   + y_43 + y_62 + y_79 + y_89 + y_95 >= 1
 c_1_13: y_13 + y_35 + y_36 + y_38 + y_40 + y_44 + y_51 + y_56 + y_73
   + y_82 + y_92 >= 1
 c_1_14: y_2 + y_14 + y_52 + y_67 + y_90 + y_95 + y_98 >= 1
 c_1_15: y_15 + y_40 + y_61 + y_68 + y_73 + y_78 + y_84 + y_91 + y_92 >= 1
 c_1_16: y_16 + y_22 + y_53 + y_64 + y_94 + y_99 >= 1
 c_1_17: y_7 + y_17 + y_27 + y_55 + y_58 + y_65 + y_81 + y_96 >= 1
 c_1_18: y_5 + y_18 + y_21 + y_30 + y_33 + y_39 + y_47 + y_57 + y_61 + y_80
   + y_85 + y_86 >= 1
 c_1_19: y_19 + y_41 + y_60 + y_63 + y_70 + y_83 + y_87 + y_97 >= 1
 c_1_20: y_7 + y_8 + y_20 + y_24 + y_27 + y_32 + y_36 + y_44 + y_45 + y_50
   + y_59 + y_62 + y_71 + y_73 + y_79 + y_84 >= 1
 c_1_21: y_5 + y_9 + y_18 + y_21 + y_26 + y_30 + y_47 + y_54 + y_80 + y_85
   + y_88 >= 1
 c_1_22: y_16 + y_22 + y_41 + y_60 + y_83 + y_99 >= 1
 c_1_23: y_10 + y_23 + y_25 + y_29 + y_33 + y_37 + y_39 + y_57 + y_68
   + y_74 + y_85 + y_86 >= 1
 c_1_24: y_0 + y_1 + y_12 + y_20 + y_24 + y_26 + y_28 + y_32 + y_34 + y_59
   + y_62 + y_71 + y_73 + y_75 + y_79 + y_84 + y_89 >= 1
 c_1_25: y_10 + y_11 + y_23 + y_25 + y_29 + y_57 + y_63 + y_70 + y_74
   + y_86 + y_87 >= 1
 c_1_26: y_0 + y_1 + y_6 + y_9 + y_12 + y_21 + y_24 + y_26 + y_31 + y_34
   + y_43 + y_54 + y_61 + y_75 + y_80 + y_88 + y_89 >= 1
 c_1_27: y_7 + y_8 + y_17 + y_20 + y_27 + y_32 + y_45 + y_50 + y_59 + y_65
   + y_76 + y_79 + y_81 >= 1
 c_1_28: y_0 + y_1 + y_6 + y_12 + y_24 + y_28 + y_32 + y_34 + y_43 + y_62
   + y_67 + y_76 + y_89 + y_90 + y_95 >= 1
 c_1_29: y_10 + y_11 + y_23 + y_25 + y_29 + y_74 >= 1
 c_1_30: y_5 + y_18 + y_21 + y_30 + y_33 + y_39 + y_47 + y_57 + y_80 + y_85
   + y_86 >= 1
 c_1_31: y_0 + y_1 + y_2 + y_6 + y_9 + y_12 + y_26 + y_31 + y_34 + y_43
   + y_52 + y_54 + y_67 + y_88 + y_89 + y_95 + y_98 >= 1
 c_1_32: y_7 + y_8 + y_12 + y_20 + y_24 + y_27 + y_28 + y_32 + y_34 + y_45
   + y_50 + y_59 + y_62 + y_71 + y_76 + y_79 >= 1
 c_1_33: y_5 + y_18 + y_23 + y_30 + y_33 + y_37 + y_39 + y_47 + y_57 + y_85
   + y_86 >= 1
 c_1_34: y_0 + y_1 + y_6 + y_12 + y_24 + y_26 + y_28 + y_31 + y_32 + y_34
   + y_43 + y_59 + y_62 + y_67 + y_76 + y_79 + y_89 + y_95 >= 1
 c_1_35: y_13 + y_35 + y_36 + y_38 + y_40 + y_44 + y_51 + y_56 + y_72
   + y_82 + y_92 >= 1
 c_1_36: y_8 + y_13 + y_20 + y_35 + y_36 + y_38 + y_40 + y_44 + y_45 + y_50
   + y_59 + y_71 + y_73 + y_79 + y_84 + y_92 >= 1
 c_1_37: y_10 + y_23 + y_33 + y_37 + y_85 >= 1
 c_1_38: y_8 + y_13 + y_35 + y_36 + y_38 + y_45 + y_50 + y_55 >= 1
 c_1_39: y_5 + y_18 + y_23 + y_30 + y_33 + y_39 + y_47 + y_57 + y_61 + y_68
   + y_85 + y_86 + y_91 >= 1
 c_1_40: y_13 + y_15 + y_35 + y_36 + y_40 + y_44 + y_51 + y_73 + y_78
   + y_82 + y_84 + y_92 >= 1
 c_1_41: y_19 + y_22 + y_41 + y_60 + y_83 + y_87 + y_97 + y_99 >= 1
 c_1_42: y_42 + y_48 + y_58 + y_69 + y_77 >= 1
 c_1_43: y_0 + y_1 + y_2 + y_6 + y_12 + y_26 + y_28 + y_31 + y_34 + y_43
   + y_52 + y_54 + y_67 + y_89 + y_95 + y_98 >= 1
 c_1_44: y_8 + y_13 + y_20 + y_35 + y_36 + y_40 + y_44 + y_50 + y_59 + y_71
   + y_73 + y_78 + y_79 + y_84 + y_92 >= 1
 c_1_45: y_7 + y_8 + y_20 + y_27 + y_32 + y_36 + y_38 + y_45 + y_50 + y_55
   + y_59 + y_65 + y_79 >= 1
 c_1_46: y_3 + y_4 + y_46 + y_48 + y_72 + y_77 + y_93 >= 1
 c_1_47: y_5 + y_18 + y_21 + y_30 + y_33 + y_39 + y_47 + y_57 + y_61 + y_68
   + y_75 + y_78 + y_80 + y_85 + y_86 + y_91 >= 1
 c_1_48: y_3 + y_4 + y_42 + y_46 + y_48 + y_55 + y_58 + y_69 + y_77 >= 1
 c_1_49: y_49 + y_51 + y_56 + y_64 + y_66 + y_72 + y_94 >= 1
 c_1_50: y_7 + y_8 + y_20 + y_27 + y_32 + y_36 + y_38 + y_44 + y_45 + y_50
   + y_55 + y_59 + y_73 + y_79 >= 1
 c_1_51: y_13 + y_35 + y_40 + y_49 + y_51 + y_56 + y_82 + y_92 + y_94 >= 1
 c_1_52: y_2 + y_14 + y_31 + y_43 + y_52 + y_67 + y_90 + y_95 + y_98 >= 1
 c_1_53: y_16 + y_53 + y_64 + y_94 + y_99 >= 1
 c_1_54: y_0 + y_1 + y_5 + y_6 + y_9 + y_21 + y_26 + y_31 + y_43 + y_54
   + y_80 + y_88 >= 1
 c_1_55: y_4 + y_17 + y_38 + y_45 + y_48 + y_50 + y_55 + y_58 + y_65 + y_77
   + y_96 >= 1
 c_1_56: y_13 + y_35 + y_49 + y_51 + y_56 + y_72 + y_82 + y_92 >= 1
 c_1_57: y_18 + y_23 + y_25 + y_30 + y_33 + y_39 + y_47 + y_57 + y_68
   + y_74 + y_85 + y_86 + y_91 >= 1
 c_1_58: y_17 + y_42 + y_48 + y_55 + y_58 + y_65 + y_69 + y_77 + y_96 >= 1
 c_1_59: y_7 + y_8 + y_20 + y_24 + y_27 + y_32 + y_34 + y_36 + y_44 + y_45
   + y_50 + y_59 + y_62 + y_71 + y_73 + y_79 + y_84 >= 1
 c_1_60: y_19 + y_22 + y_41 + y_60 + y_83 + y_99 >= 1
 c_1_61: y_15 + y_18 + y_26 + y_39 + y_47 + y_61 + y_68 + y_71 + y_75
   + y_78 + y_84 + y_91 >= 1
 c_1_62: y_0 + y_1 + y_8 + y_12 + y_20 + y_24 + y_28 + y_32 + y_34 + y_59
   + y_62 + y_71 + y_79 + y_84 + y_89 >= 1
 c_1_63: y_11 + y_19 + y_25 + y_63 + y_70 + y_74 + y_83 + y_87 + y_97 >= 1
 c_1_64: y_16 + y_49 + y_53 + y_64 + y_66 + y_94 + y_99 >= 1
 c_1_65: y_7 + y_17 + y_27 + y_45 + y_55 + y_58 + y_65 + y_81 + y_96 >= 1
 c_1_66: y_49 + y_64 + y_66 + y_72 >= 1
 c_1_67: y_0 + y_2 + y_6 + y_14 + y_28 + y_31 + y_34 + y_43 + y_52 + y_67
   + y_89 + y_90 + y_95 + y_98 >= 1
 c_1_68: y_15 + y_23 + y_39 + y_47 + y_57 + y_61 + y_68 + y_74 + y_75
   + y_78 + y_86 + y_91 >= 1
 c_1_69: y_4 + y_42 + y_48 + y_58 + y_69 + y_77 >= 1
 c_1_70: y_11 + y_19 + y_25 + y_63 + y_70 + y_74 + y_83 + y_87 + y_97 >= 1
 c_1_71: y_8 + y_20 + y_24 + y_32 + y_36 + y_44 + y_59 + y_61 + y_62 + y_71
   + y_73 + y_75 + y_78 + y_79 + y_84 >= 1
 c_1_72: y_35 + y_46 + y_49 + y_56 + y_66 + y_72 + y_93 >= 1
 c_1_73: y_8 + y_13 + y_15 + y_20 + y_24 + y_36 + y_40 + y_44 + y_50 + y_59
   + y_71 + y_73 + y_75 + y_78 + y_79 + y_84 + y_92 >= 1
 c_1_74: y_11 + y_23 + y_25 + y_29 + y_57 + y_63 + y_68 + y_70 + y_74
   + y_86 + y_87 + y_91 >= 1
 c_1_75: y_24 + y_26 + y_47 + y_61 + y_68 + y_71 + y_73 + y_75 + y_78
   + y_84 + y_91 >= 1
 c_1_76: y_27 + y_28 + y_32 + y_34 + y_76 + y_81 + y_89 + y_90 + y_95 >= 1
 c_1_77: y_3 + y_4 + y_42 + y_46 + y_48 + y_55 + y_58 + y_69 + y_77 >= 1
 c_1_78: y_15 + y_40 + y_44 + y_47 + y_61 + y_68 + y_71 + y_73 + y_75
   + y_78 + y_84 + y_91 >= 1
 c_1_79: y_7 + y_8 + y_12 + y_20 + y_24 + y_27 + y_32 + y_34 + y_36 + y_44
   + y_45 + y_50 + y_59 + y_62 + y_71 + y_73 + y_79 + y_84 >= 1
 c_1_80: y_5 + y_9 + y_18 + y_21 + y_26 + y_30 + y_47 + y_54 + y_80 + y_85
   + y_88 >= 1
 c_1_81: y_7 + y_17 + y_27 + y_65 + y_76 + y_81 + y_96 >= 1
 c_1_82: y_13 + y_35 + y_40 + y_51 + y_56 + y_82 + y_92 >= 1
 c_1_83: y_19 + y_22 + y_41 + y_60 + y_63 + y_70 + y_83 + y_87 + y_97 >= 1
 c_1_84: y_15 + y_20 + y_24 + y_36 + y_40 + y_44 + y_59 + y_61 + y_62
   + y_71 + y_73 + y_75 + y_78 + y_79 + y_84 + y_92 >= 1
 c_1_85: y_5 + y_18 + y_21 + y_23 + y_30 + y_33 + y_37 + y_39 + y_47 + y_57
   + y_80 + y_85 + y_86 >= 1
 c_1_86: y_18 + y_23 + y_25 + y_30 + y_33 + y_39 + y_47 + y_57 + y_68
   + y_74 + y_85 + y_86 + y_91 >= 1
 c_1_87: y_11 + y_19 + y_25 + y_41 + y_63 + y_70 + y_74 + y_83 + y_87
   + y_97 >= 1
 c_1_88: y_1 + y_5 + y_9 + y_21 + y_26 + y_31 + y_54 + y_80 + y_88 >= 1
 c_1_89: y_0 + y_1 + y_6 + y_12 + y_24 + y_26 + y_28 + y_31 + y_34 + y_43
   + y_62 + y_67 + y_76 + y_89 + y_90 + y_95 >= 1
 c_1_90: y_14 + y_28 + y_52 + y_67 + y_76 + y_89 + y_90 + y_95 >= 1
 c_1_91: y_15 + y_39 + y_47 + y_57 + y_61 + y_68 + y_74 + y_75 + y_78
   + y_86 + y_91 >= 1
 c_1_92: y_13 + y_15 + y_35 + y_36 + y_40 + y_44 + y_51 + y_56 + y_73
   + y_82 + y_84 + y_92 >= 1
 c_1_93: y_3 + y_4 + y_46 + y_72 + y_93 >= 1
 c_1_94: y_16 + y_49 + y_51 + y_53 + y_64 + y_94 + y_99 >= 1
 c_1_95: y_0 + y_1 + y_2 + y_6 + y_12 + y_14 + y_28 + y_31 + y_34 + y_43
   + y_52 + y_67 + y_76 + y_89 + y_90 + y_95 + y_98 >= 1
 c_1_96: y_7 + y_17 + y_55 + y_58 + y_65 + y_81 + y_96 >= 1
 c_1_97: y_11 + y_19 + y_41 + y_63 + y_70 + y_83 + y_87 + y_97 >= 1
 c_1_98: y_2 + y_14 + y_31 + y_43 + y_52 + y_67 + y_95 + y_98 >= 1
 c_1_99: y_16 + y_22 + y_41 + y_53 + y_60 + y_64 + y_94 + y_99 >= 1
Bounds
 Constant = 1
Binaries
 y_0 y_1 y_2 y_3 y_4 y_5 y_6 y_7 y_8 y_9 y_10 y_11 y_12 y_13 y_14 y_15 y_16
 y_17 y_18 y_19 y_20 y_21 y_22 y_23 y_24 y_25 y_26 y_27 y_28 y_29 y_30 y_31
 y_32 y_33 y_34 y_35 y_36 y_37 y_38 y_39 y_40 y_41 y_42 y_43 y_44 y_45 y_46
 y_47 y_48 y_49 y_50 y_51 y_52 y_53 y_54 y_55 y_56 y_57 y_58 y_59 y_60 y_61
 y_62 y_63 y_64 y_65 y_66 y_67 y_68 y_69 y_70 y_71 y_72 y_73 y_74 y_75 y_76
 y_77 y_78 y_79 y_80 y_81 y_82 y_83 y_84 y_85 y_86 y_87 y_88 y_89 y_90 y_91
 y_92 y_93 y_94 y_95 y_96 y_97 y_98 y_99
End
